data/MCDM/NO_CORR/GEN_FROM_60/18_ITEMS_1000_GEN/K5018W03.KNP.mps
NAME          BLANK   
ROWS
 N  OBJROW
 L  R0000000
COLUMNS
    C0000000  OBJROW     -662.         R0000000  403.        
    C0000001  OBJROW     -780.         R0000000  449.        
    C0000002  OBJROW     -479.         R0000000  359.        
    C0000003  OBJROW     -159.         R0000000  294.        
    C0000004  OBJROW     -777.         R0000000  382.        
    C0000005  OBJROW     -200.         R0000000  435.        
    C0000006  OBJROW     -259.         R0000000  647.        
    C0000007  OBJROW     -606.         R0000000  36.         
    C0000008  OBJROW     -590.         R0000000  310.        
    C0000009  OBJROW     -375.         R0000000  806.        
    C0000010  OBJROW     -780.         R0000000  30.         
    C0000011  OBJROW     -19.          R0000000  174.        
    C0000012  OBJROW     -505.         R0000000  64.         
    C0000013  OBJROW     -420.         R0000000  429.        
    C0000014  OBJROW     -98.          R0000000  718.        
    C0000015  OBJROW     -709.         R0000000  572.        
    C0000016  OBJROW     -837.         R0000000  461.        
    C0000017  OBJROW     -926.         R0000000  974.        
RHS
    RHS       R0000000  13865.      
BOUNDS
 BV BOUND     C0000000  1.          
 BV BOUND     C0000001  1.          
 BV BOUND     C0000002  1.          
 BV BOUND     C0000003  1.          
 BV BOUND     C0000004  1.          
 BV BOUND     C0000005  1.          
 BV BOUND     C0000006  1.          
 BV BOUND     C0000007  1.          
 BV BOUND     C0000008  1.          
 BV BOUND     C0000009  1.          
 BV BOUND     C0000010  1.          
 BV BOUND     C0000011  1.          
 BV BOUND     C0000012  1.          
 BV BOUND     C0000013  1.          
 BV BOUND     C0000014  1.          
 BV BOUND     C0000015  1.          
 BV BOUND     C0000016  1.          
 BV BOUND     C0000017  1.          
ENDATA
