interdiction/MCDM/NO_CORR/GEN_FROM_60/18_ITEMS_1000_GEN/K5018W03.KNP.txt
N 18
M 19
LC 18
LC 19
LC 20
LC 21
LC 22
LC 23
LC 24
LC 25
LC 26
LC 27
LC 28
LC 29
LC 30
LC 31
LC 32
LC 33
LC 34
LC 35
LR 1
LR 2
LR 3
LR 4
LR 5
LR 6
LR 7
LR 8
LR 9
LR 10
LR 11
LR 12
LR 13
LR 14
LR 15
LR 16
LR 17
LR 18
LR 19
LO -662
LO -780
LO -479
LO -159
LO -777
LO -200
LO -259
LO -606
LO -590
LO -375
LO -780
LO -19
LO -505
LO -420
LO -98
LO -709
LO -837
LO -926
OS 1
IC 349
IC 171
IC 226
IC 159
IC 296
IC 66
IC 33
IC 232
IC 969
IC 263
IC 335
IC 824
IC 353
IC 734
IC 631
IC 998
IC 34
IC 537
IB 3605
